Route #1: 47 46 50 52 31 35 37 39 36 32 29 20
Route #2: 65 62 66 68 55 54 56 58 40
Route #3: 72 80 79 73 71 76 81 83 84 86 89 90
Route #4: 5 6 2 99 100 97 94 95 98
Route #5: 22 28 13 17 19 15 14 12 10
Cost: 542
Comment: Known optimal, see Freitas et al. (2023; https://doi.org/10.1016/j.cor.2022.106040) for details
